p cnf 57 90
-1 30 38 55 -34 0 
-2 -3 55 -34 0 
-4 28 39 -2 -5 -6 -7 55 -34 0 
-8 -9 -3 55 -34 0 
-10 -11 47 55 -34 0 
-3 -12 55 -34 0 
-13 56 -3 0 
-3 -14 17 18 37 55 -34 0 
-3 -15 55 -34 0 
-3 -8 -16 -17 14 18 37 55 -34 0 
-3 -8 -18 14 17 37 55 -34 0 
-3 57 -27 0 
-9 -3 57 -27 0 
-13 -19 -3 57 -27 0 
-13 -20 -3 57 -27 0 
-12 -21 -22 -3 55 -34 0 
-3 -23 57 -27 0 
-24 55 -34 0 
-25 55 -34 0 
-26 32 55 -34 0 
-21 -12 55 -34 0 
-27 -2 55 -34 0 
-28 4 39 -24 55 -34 0 
-2 -3 -29 55 -34 0 
-30 1 38 55 -34 0 
-3 -24 55 -34 0 
-28 4 39 55 -34 0 
-31 -4 28 39 57 -27 0 
-20 -32 26 -22 57 -27 0 
-20 -28 4 39 55 -34 0 
-13 -33 -3 57 -27 0 
-34 -31 -21 -22 -6 57 -27 0 
-12 55 -34 0 
-35 56 -3 0 
-20 -19 -3 57 -27 0 
-22 -3 57 -27 0 
-26 32 57 -27 0 
-36 -20 -3 57 -27 0 
-34 -2 57 -27 0 
-3 -34 57 -27 0 
-25 57 -27 0 
-5 57 -27 0 
-9 -19 -3 57 -27 0 
-7 57 -27 0 
-19 -3 57 -27 0 
-36 -3 -37 14 17 18 57 -27 0 
-20 -3 57 -27 0 
-20 -38 1 30 57 -27 0 
-33 -39 4 28 57 -27 0 
-40 -38 1 30 57 -27 0 
-41 57 -27 0 
-3 -2 -21 -22 -6 55 -34 0 
-3 -42 57 -27 0 
-20 -4 28 39 -31 -21 57 -27 0 
-36 -19 -3 57 -27 0 
-43 57 -27 0 
-16 -44 -45 55 -34 0 
-21 -24 55 -34 0 
-12 -18 14 17 37 55 -34 0 
-5 55 -34 0 
-28 4 39 -22 -3 55 -34 0 
-29 -19 -3 55 -34 0 
-29 -36 -3 55 -34 0 
-13 -12 55 -34 0 
-46 55 -34 0 
-3 -8 55 -34 0 
-4 28 39 55 -34 0 
-47 11 55 -34 0 
-48 55 -34 0 
-49 -2 -3 55 -34 0 
-33 56 -3 0 
-50 55 -34 0 
-51 56 -3 0 
-52 55 -34 0 
-3 -25 55 -34 0 
-12 -22 55 -34 0 
-53 55 -34 0 
-2 -54 55 -34 0 
-3 -2 -22 55 -34 0 
-20 56 -3 0 
-9 -21 -3 57 -27 0 
-13 -21 -12 57 -27 0 
-34 -6 57 -27 0 
-13 -9 -3 57 -27 0 
-36 -3 57 -27 0 
-20 -9 -3 57 -27 0 
-21 57 -27 0 
-2 57 -27 0 
-36 -3 -22 57 -27 0 
-36 -9 -34 57 -27 0 
